* MOL main file generated by charmmgen
* author: Victor Bazterra 2004 CHPC
* 

Read rtf card name Abemaciclib_94NAMRd_CHARMM.rtf

Read param card name Abemaciclib_94NAMRd_CHARMM.prm

Read sequence card
* Reading the coordinates of residue
* 
    1
MOL
Generate MOL setup
Read coor card free
* Residues coordinate
* 
   69
    1    1 MOL  C1   -13.21600  27.49100   7.68000
    2    1 MOL  C2   -14.29300  26.58000   7.11600
    3    1 MOL  N1   -15.60900  26.92400   7.65500
    4    1 MOL  C3   -16.00900  25.97400   8.70000
    5    1 MOL  C4   -17.38700  26.33500   9.26600
    6    1 MOL  N2   -17.39400  27.70700   9.78900
    7    1 MOL  C5   -18.70900  28.05000  10.32500
    8    1 MOL  C6   -18.67500  28.23400  11.81900
    9    1 MOL  C7   -19.83100  28.53800  12.53100
   10    1 MOL  C8   -19.76800  28.70000  13.91200
   11    1 MOL  C9   -18.53500  28.55100  14.52600
   12    1 MOL  N3   -18.48700  28.71800  15.93300
   13    1 MOL  C10  -18.58100  27.80900  16.99800
   14    1 MOL  N4   -19.36500  26.73200  16.80200
   15    1 MOL  C11  -19.43200  25.87900  17.84500
   16    1 MOL  C12  -18.75900  26.06700  19.03400
   17    1 MOL  F1   -18.85600  25.19200  20.04000
   18    1 MOL  C13  -17.98700  27.20900  19.11000
   19    1 MOL  C14  -17.23100  27.52600  20.29600
   20    1 MOL  C15  -17.90200  27.95300  21.44500
   21    1 MOL  C16  -17.19800  28.27100  22.61400
   22    1 MOL  F2   -17.85500  28.67700  23.70800
   23    1 MOL  C17  -15.79900  28.15200  22.60800
   24    1 MOL  N5   -14.88600  28.39800  23.60900
   25    1 MOL  C18  -13.71500  28.12900  23.07600
   26    1 MOL  C19  -12.40900  28.23800  23.75700
   27    1 MOL  N6   -13.82700  27.71900  21.77600
   28    1 MOL  C20  -12.73800  27.34600  20.90100
   29    1 MOL  C21  -12.06700  26.04900  21.35900
   30    1 MOL  C22  -11.71100  28.47400  20.76700
   31    1 MOL  C23  -15.15900  27.72500  21.44800
   32    1 MOL  C24  -15.83800  27.40200  20.27300
   33    1 MOL  N7   -17.87500  28.10400  18.10600
   34    1 MOL  N8   -17.39100  28.25800  13.86800
   35    1 MOL  C25  -17.49100  28.10600  12.52800
   36    1 MOL  C26  -16.99300  28.65700   8.74400
   37    1 MOL  C27  -15.61600  28.29600   8.17900
   38    1 MOL  H1   -13.25000  27.46200   8.77900
   39    1 MOL  H2   -12.22900  27.14900   7.33500
   40    1 MOL  H3   -13.38900  28.52100   7.33500
   41    1 MOL  H4   -14.31500  26.68400   6.02100
   42    1 MOL  H5   -14.05900  25.54400   7.40100
   43    1 MOL  H6   -16.04900  24.96200   8.27100
   44    1 MOL  H7   -15.27100  26.01500   9.51500
   45    1 MOL  H8   -18.13800  26.25000   8.46700
   46    1 MOL  H9   -17.62200  25.64300  10.08800
   47    1 MOL  H10  -19.05000  28.98600   9.85900
   48    1 MOL  H11  -19.39600  27.22100  10.09900
   49    1 MOL  H12  -20.79100  28.65000  12.00500
   50    1 MOL  H13  -20.66800  28.93900  14.49700
   51    1 MOL  H14  -18.36100  29.67700  16.24200
   52    1 MOL  H15  -20.06000  24.98200  17.74100
   53    1 MOL  H16  -18.99800  28.04100  21.43100
   54    1 MOL  H17  -12.56100  28.22500  24.84600
   55    1 MOL  H18  -11.77200  27.39000  23.46600
   56    1 MOL  H19  -11.92100  29.18000  23.46600
   57    1 MOL  H20  -13.17100  27.16700  19.90600
   58    1 MOL  H21  -12.04900  26.01400  22.45800
   59    1 MOL  H22  -12.63300  25.18800  20.97400
   60    1 MOL  H23  -11.03700  26.01300  20.97400
   61    1 MOL  H24  -11.40400  28.81100  21.76800
   62    1 MOL  H25  -10.83200  28.10600  20.21800
   63    1 MOL  H26  -12.16000  29.31500  20.21800
   64    1 MOL  H27  -15.30400  27.06600  19.37200
   65    1 MOL  H28  -16.57600  27.86600  11.96600
   66    1 MOL  H29  -17.73400  28.63300   7.93100
   67    1 MOL  H30  -16.94000  29.66400   9.18400
   68    1 MOL  H31  -15.36600  28.99400   7.36600
   69    1 MOL  H32  -14.87400  28.36800   8.98800
Energy ihbfrq 0 inbfrq -1
Open write card unit 14 name tmp.out
Write energy card unit 14
* MOL energy before the optimization
* 
Minimise Abnr Nstep 5000 Tolgrd 0.00001
Write energy card unit 14
* MOL energy after optimization
* 
Write coor card unit 14
* MOL energy after optimization
* 
